83 6 53 85 82 75 11 52 1 55 32 21 74 59 31 50 80 62 72 84 51 17 48 56 58 67 27 65 12 69 78 88 20 90 36 33 45 49 30 94 2 95 10 54 57 29 22 19 68 3 79 9 86 61 14 46 18 8 26 41 63 23 34 81 98 99 43 5 87 44 42 93 0 73 92 77 37 38 89 28 24 70 76 15 97 60 13 16 64 25 40 71 4 91 35 96 7 39 47 66